p tw 239 2932
1 2
1 3
1 5
1 6
1 10
1 13
1 27
1 29
2 3
2 4
2 5
2 7
2 8
2 11
2 16
2 21
3 4
3 5
3 14
3 15
3 18
3 19
3 20
3 21
3 22
3 28
3 29
4 5
4 23
4 24
4 25
4 27
4 29
5 9
5 12
5 17
5 20
5 26
6 7
6 10
6 13
6 14
6 15
6 16
6 17
6 18
6 19
6 20
6 21
6 22
6 23
6 26
6 28
6 29
6 30
6 31
6 32
6 33
6 34
6 35
6 36
6 37
6 38
6 39
6 40
6 41
6 94
6 113
7 8
7 13
7 14
7 15
7 16
7 17
7 18
7 19
7 20
7 21
7 22
7 23
7 25
7 26
7 28
7 29
7 30
7 31
7 32
7 33
7 34
7 35
7 36
7 37
7 38
7 39
7 40
7 41
7 97
7 102
8 10
8 11
8 12
8 16
8 24
8 25
8 27
8 86
8 92
8 108
9 10
9 11
9 12
9 17
9 24
9 25
9 26
9 27
9 87
9 92
9 109
10 11
10 12
10 13
10 24
10 25
10 26
10 27
10 89
10 91
10 110
11 12
11 24
11 25
11 26
11 27
11 85
11 91
11 92
11 93
11 105
11 111
12 24
12 25
12 26
12 27
12 85
12 91
12 92
12 93
12 105
12 111
13 14
13 15
13 16
13 17
13 18
13 19
13 20
13 21
13 22
13 23
13 25
13 26
13 28
13 29
13 30
13 31
13 32
13 33
13 34
13 35
13 36
13 37
13 38
13 39
13 40
13 41
13 42
13 43
13 44
13 45
13 46
13 47
13 48
13 49
13 50
13 51
13 52
13 53
13 54
13 55
13 56
13 57
13 58
13 59
13 60
13 61
13 62
13 63
13 64
13 65
13 66
13 67
13 68
13 69
13 70
13 71
13 94
13 102
13 110
14 15
14 16
14 17
14 18
14 19
14 20
14 21
14 22
14 23
14 25
14 26
14 28
14 29
14 30
14 31
14 32
14 33
14 34
14 35
14 36
14 37
14 38
14 39
14 40
14 41
14 42
14 43
14 44
14 45
14 46
14 47
14 48
14 49
14 50
14 51
14 52
14 53
14 54
14 55
14 56
14 57
14 58
14 59
14 60
14 61
14 62
14 63
14 64
14 65
14 66
14 67
14 68
14 69
14 70
14 71
14 72
14 73
14 84
14 95
14 101
14 102
14 113
15 16
15 17
15 18
15 19
15 20
15 21
15 22
15 23
15 25
15 26
15 28
15 29
15 30
15 31
15 32
15 33
15 34
15 35
15 36
15 37
15 38
15 39
15 40
15 41
15 42
15 43
15 44
15 45
15 46
15 47
15 48
15 49
15 50
15 51
15 52
15 53
15 54
15 55
15 56
15 57
15 58
15 59
15 60
15 61
15 62
15 63
15 64
15 65
15 66
15 67
15 68
15 69
15 70
15 71
15 72
15 73
15 74
15 75
15 95
15 96
15 101
15 102
15 113
16 18
16 19
16 20
16 21
16 22
16 23
16 25
16 28
16 29
16 30
16 31
16 32
16 33
16 34
16 35
16 36
16 37
16 38
16 39
16 40
16 41
16 42
16 43
16 44
16 45
16 46
16 47
16 48
16 49
16 50
16 51
16 52
16 53
16 54
16 55
16 56
16 57
16 58
16 59
16 60
16 61
16 62
16 63
16 64
16 65
16 66
16 67
16 68
16 69
16 70
16 71
16 72
16 73
16 74
16 75
16 97
16 101
16 108
17 18
17 19
17 20
17 21
17 22
17 23
17 25
17 26
17 28
17 29
17 30
17 31
17 32
17 33
17 34
17 35
17 36
17 37
17 38
17 39
17 40
17 41
17 42
17 43
17 44
17 45
17 46
17 47
17 48
17 49
17 50
17 51
17 52
17 53
17 54
17 55
17 56
17 57
17 58
17 59
17 60
17 61
17 62
17 63
17 64
17 65
17 66
17 67
17 68
17 69
17 70
17 71
17 72
17 73
17 74
17 75
17 98
17 101
17 109
18 19
18 20
18 21
18 22
18 23
18 25
18 26
18 28
18 29
18 30
18 31
18 32
18 33
18 34
18 35
18 36
18 37
18 38
18 39
18 40
18 41
18 42
18 43
18 44
18 45
18 46
18 47
18 48
18 49
18 50
18 51
18 52
18 53
18 54
18 55
18 56
18 57
18 58
18 59
18 60
18 61
18 62
18 63
18 64
18 65
18 66
18 67
18 68
18 69
18 70
18 71
18 72
18 73
18 74
18 75
18 76
18 77
18 78
18 79
18 99
18 101
18 102
18 112
18 113
19 20
19 21
19 22
19 23
19 25
19 26
19 28
19 29
19 30
19 31
19 32
19 33
19 34
19 35
19 36
19 37
19 38
19 39
19 40
19 41
19 42
19 43
19 44
19 45
19 46
19 47
19 48
19 49
19 50
19 51
19 52
19 53
19 54
19 55
19 56
19 57
19 58
19 59
19 60
19 61
19 62
19 63
19 64
19 65
19 66
19 67
19 68
19 69
19 70
19 71
19 72
19 73
19 74
19 75
19 76
19 77
19 78
19 79
19 80
19 81
19 96
19 100
19 101
19 102
19 113
20 21
20 22
20 23
20 25
20 26
20 28
20 29
20 30
20 31
20 32
20 33
20 34
20 35
20 36
20 37
20 38
20 39
20 40
20 41
20 42
20 43
20 44
20 45
20 46
20 47
20 48
20 49
20 50
20 51
20 52
20 53
20 54
20 55
20 56
20 57
20 58
20 59
20 60
20 61
20 62
20 63
20 64
20 65
20 66
20 67
20 68
20 69
20 70
20 71
20 72
20 73
20 74
20 75
20 76
20 77
20 78
20 79
20 80
20 81
20 82
20 95
20 96
20 101
20 102
20 113
21 22
21 23
21 25
21 26
21 28
21 29
21 30
21 31
21 32
21 33
21 34
21 35
21 36
21 37
21 38
21 39
21 40
21 41
21 42
21 43
21 44
21 45
21 46
21 47
21 48
21 49
21 50
21 51
21 52
21 53
21 54
21 55
21 56
21 57
21 58
21 59
21 60
21 61
21 62
21 63
21 64
21 65
21 66
21 67
21 68
21 69
21 70
21 71
21 72
21 73
21 74
21 75
21 76
21 77
21 78
21 79
21 80
21 81
21 82
21 83
21 95
21 96
21 101
21 102
21 113
22 23
22 25
22 26
22 28
22 29
22 30
22 31
22 32
22 33
22 34
22 35
22 36
22 37
22 38
22 39
22 40
22 41
22 42
22 43
22 44
22 45
22 46
22 47
22 48
22 49
22 50
22 51
22 52
22 53
22 54
22 55
22 56
22 57
22 58
22 59
22 60
22 61
22 62
22 63
22 64
22 65
22 66
22 67
22 68
22 69
22 70
22 71
22 72
22 73
22 74
22 75
22 76
22 77
22 78
22 79
22 80
22 81
22 82
22 83
22 100
22 101
22 102
22 103
22 113
23 24
23 25
23 26
23 28
23 29
23 30
23 31
23 32
23 33
23 34
23 35
23 36
23 37
23 38
23 39
23 40
23 41
23 42
23 43
23 44
23 45
23 46
23 47
23 48
23 49
23 50
23 51
23 52
23 53
23 54
23 55
23 56
23 57
23 58
23 59
23 60
23 61
23 62
23 63
23 64
23 65
23 66
23 67
23 68
23 69
23 70
23 71
23 72
23 73
23 74
23 75
23 76
23 77
23 78
23 79
23 80
23 81
23 82
23 83
23 88
23 90
23 101
23 102
23 104
23 107
23 113
24 25
24 26
24 27
24 88
24 90
24 91
24 92
24 106
24 107
24 111
25 26
25 27
25 28
25 29
25 30
25 31
25 32
25 33
25 34
25 35
25 36
25 37
25 38
25 39
25 40
25 41
25 42
25 43
25 44
25 45
25 46
25 47
25 48
25 49
25 50
25 51
25 52
25 53
25 54
25 55
25 56
25 57
25 58
25 59
25 104
25 106
25 107
25 111
25 113
26 27
26 28
26 29
26 30
26 31
26 32
26 33
26 34
26 35
26 36
26 37
26 38
26 39
26 40
26 41
26 42
26 43
26 44
26 45
26 46
26 47
26 48
26 49
26 50
26 51
26 52
26 53
26 87
26 92
26 98
26 101
26 109
27 91
27 92
27 105
27 111
28 29
28 30
28 31
28 32
28 33
28 34
28 35
28 36
28 37
28 38
28 39
28 40
28 41
28 42
28 43
28 44
28 45
28 46
28 47
28 48
28 49
28 50
28 51
28 52
28 53
28 54
28 55
28 56
28 57
28 58
28 59
28 60
28 61
28 62
28 63
28 64
28 65
28 66
28 67
28 68
28 69
28 70
28 71
28 72
28 73
28 74
28 75
28 76
28 77
28 78
28 79
28 80
28 81
28 82
28 83
28 101
28 102
28 103
28 112
28 113
29 30
29 31
29 32
29 33
29 34
29 35
29 36
29 37
29 38
29 39
29 40
29 41
29 42
29 43
29 44
29 45
29 46
29 47
29 48
29 49
29 50
29 51
29 52
29 53
29 54
29 55
29 56
29 57
29 58
29 59
29 60
29 61
29 62
29 63
29 64
29 65
29 66
29 67
29 68
29 69
29 70
29 71
29 72
29 73
29 74
29 75
29 76
29 77
29 78
29 79
29 80
29 81
29 82
29 83
29 95
29 96
29 101
29 102
29 113
30 99
30 101
31 99
31 101
32 99
32 101
33 99
33 101
34 99
34 102
35 99
35 102
36 99
36 102
37 99
37 102
38 103
38 113
39 103
39 113
40 103
40 113
41 103
41 113
42 100
42 113
43 100
43 113
44 100
44 113
45 100
45 113
46 101
46 112
47 101
47 112
48 101
48 112
49 101
49 112
50 102
50 112
51 102
51 112
52 102
52 112
53 102
53 112
54 96
54 101
55 96
55 101
56 96
56 102
57 96
57 102
58 96
58 113
59 96
59 113
60 101
60 103
61 101
61 103
62 102
62 103
63 102
63 103
64 101
64 103
65 101
65 103
66 102
66 103
67 102
67 103
68 100
68 102
69 100
69 102
70 100
70 102
71 100
71 102
72 100
72 101
73 100
73 101
74 100
74 101
75 100
75 101
76 99
76 113
77 99
77 113
78 99
78 113
79 99
79 113
80 112
80 113
81 112
81 113
82 112
82 113
83 112
83 113
84 88
84 90
84 94
84 95
84 96
84 97
84 98
84 99
84 100
84 103
84 104
84 108
84 109
84 112
84 114
84 115
84 116
84 117
84 118
84 119
84 120
84 121
84 122
84 123
84 124
84 125
84 126
84 127
84 128
84 129
84 130
84 131
84 132
84 133
84 134
84 135
84 136
84 137
84 138
84 139
84 140
84 141
84 142
84 143
85 86
85 87
85 88
85 89
85 90
85 91
85 92
85 93
85 105
85 144
85 145
85 172
85 191
86 89
86 90
86 91
86 92
86 93
86 97
86 105
86 106
86 107
86 108
86 111
86 144
86 145
86 171
86 187
87 89
87 90
87 91
87 92
87 93
87 98
87 105
87 106
87 107
87 109
87 111
87 144
87 145
87 171
87 188
88 89
88 90
88 91
88 92
88 93
88 94
88 95
88 96
88 97
88 98
88 99
88 100
88 101
88 102
88 103
88 104
88 105
88 106
88 107
88 108
88 109
88 110
88 111
88 112
88 113
88 114
88 115
88 116
88 117
88 118
88 119
88 120
88 121
88 122
88 123
88 124
88 125
88 144
88 145
88 171
88 180
88 183
88 185
89 91
89 92
89 93
89 94
89 105
89 106
89 107
89 110
89 111
89 144
89 145
89 170
89 189
90 91
90 92
90 93
90 94
90 95
90 96
90 97
90 98
90 99
90 100
90 101
90 102
90 103
90 104
90 105
90 106
90 107
90 108
90 109
90 110
90 111
90 112
90 113
90 114
90 115
90 116
90 117
90 118
90 119
90 120
90 121
90 122
90 123
90 124
90 125
90 144
90 145
90 170
90 181
90 183
90 185
91 92
91 93
91 105
91 106
91 107
91 111
91 144
91 145
91 170
91 172
91 184
91 191
92 93
92 105
92 106
92 107
92 111
92 144
92 145
92 171
92 172
92 184
92 191
93 105
93 144
93 145
93 172
93 184
93 191
94 95
94 96
94 97
94 98
94 99
94 100
94 101
94 102
94 103
94 104
94 107
94 108
94 109
94 110
94 112
94 113
94 114
94 115
94 116
94 117
94 118
94 119
94 120
94 121
94 122
94 123
94 124
94 125
94 126
94 127
94 128
94 129
94 130
94 131
94 132
94 133
94 134
94 135
94 136
94 137
94 138
94 139
94 140
94 141
94 142
94 143
94 146
94 147
94 148
94 149
94 150
94 151
94 152
94 153
94 154
94 155
94 156
94 157
94 173
94 181
94 189
95 96
95 97
95 98
95 99
95 100
95 101
95 102
95 103
95 104
95 107
95 108
95 109
95 110
95 112
95 113
95 114
95 115
95 116
95 117
95 118
95 119
95 120
95 121
95 122
95 123
95 124
95 125
95 126
95 127
95 128
95 129
95 130
95 131
95 132
95 133
95 134
95 135
95 136
95 137
95 138
95 139
95 140
95 141
95 142
95 143
95 146
95 147
95 148
95 149
95 150
95 151
95 152
95 153
95 154
95 155
95 156
95 157
95 158
95 159
95 174
96 97
96 98
96 99
96 100
96 101
96 102
96 103
96 104
96 107
96 108
96 109
96 110
96 112
96 113
96 114
96 115
96 116
96 117
96 118
96 119
96 120
96 121
96 122
96 123
96 124
96 125
96 126
96 127
96 128
96 129
96 130
96 131
96 132
96 133
96 134
96 135
96 136
96 137
96 138
96 139
96 140
96 141
96 142
96 143
96 146
96 147
96 148
96 149
96 150
96 151
96 152
96 153
96 154
96 155
96 156
96 157
96 158
96 159
96 160
96 161
96 174
96 175
96 180
96 181
96 193
97 99
97 100
97 101
97 102
97 103
97 104
97 107
97 108
97 110
97 112
97 113
97 114
97 115
97 116
97 117
97 118
97 119
97 120
97 121
97 122
97 123
97 124
97 125
97 126
97 127
97 128
97 129
97 130
97 131
97 132
97 133
97 134
97 135
97 136
97 137
97 138
97 139
97 140
97 141
97 142
97 143
97 146
97 147
97 148
97 149
97 150
97 151
97 152
97 153
97 154
97 155
97 156
97 157
97 158
97 159
97 160
97 161
97 176
97 180
97 187
98 99
98 100
98 101
98 102
98 103
98 104
98 107
98 109
98 110
98 112
98 113
98 114
98 115
98 116
98 117
98 118
98 119
98 120
98 121
98 122
98 123
98 124
98 125
98 126
98 127
98 128
98 129
98 130
98 131
98 132
98 133
98 134
98 135
98 136
98 137
98 138
98 139
98 140
98 141
98 142
98 143
98 146
98 147
98 148
98 149
98 150
98 151
98 152
98 153
98 154
98 155
98 156
98 157
98 158
98 159
98 160
98 161
98 177
98 180
98 188
99 100
99 101
99 102
99 103
99 104
99 107
99 108
99 109
99 110
99 112
99 113
99 114
99 115
99 116
99 117
99 118
99 119
99 120
99 121
99 122
99 123
99 124
99 125
99 126
99 127
99 128
99 129
99 130
99 131
99 132
99 133
99 134
99 135
99 136
99 137
99 138
99 139
99 140
99 141
99 142
99 143
99 146
99 147
99 148
99 149
99 150
99 151
99 152
99 153
99 154
99 155
99 156
99 157
99 158
99 159
99 160
99 161
99 162
99 163
99 164
99 165
99 178
99 180
99 181
99 192
99 193
100 101
100 102
100 103
100 104
100 107
100 108
100 109
100 110
100 112
100 113
100 114
100 115
100 116
100 117
100 118
100 119
100 120
100 121
100 122
100 123
100 124
100 125
100 126
100 127
100 128
100 129
100 130
100 131
100 132
100 133
100 134
100 135
100 136
100 137
100 138
100 139
100 140
100 141
100 142
100 143
100 146
100 147
100 148
100 149
100 150
100 151
100 152
100 153
100 154
100 155
100 156
100 157
100 158
100 159
100 160
100 161
100 162
100 163
100 164
100 165
100 166
100 167
100 175
100 179
100 180
100 181
100 193
101 102
101 103
101 104
101 107
101 108
101 109
101 110
101 112
101 113
101 114
101 115
101 116
101 117
101 118
101 119
101 120
101 121
101 122
101 123
101 124
101 125
101 126
101 127
101 128
101 129
101 130
101 131
101 132
101 133
101 134
101 135
101 136
101 137
101 138
101 139
101 140
101 141
101 142
101 143
101 146
101 147
101 148
101 149
101 150
101 151
101 152
101 153
101 154
101 155
101 156
101 157
101 158
101 159
101 160
101 161
101 162
101 163
101 164
101 165
101 166
101 167
101 168
101 180
102 103
102 104
102 107
102 108
102 109
102 110
102 112
102 113
102 114
102 115
102 116
102 117
102 118
102 119
102 120
102 121
102 122
102 123
102 124
102 125
102 126
102 127
102 128
102 129
102 130
102 131
102 132
102 133
102 134
102 135
102 136
102 137
102 138
102 139
102 140
102 141
102 142
102 143
102 146
102 147
102 148
102 149
102 150
102 151
102 152
102 153
102 154
102 155
102 156
102 157
102 158
102 159
102 160
102 161
102 162
102 163
102 164
102 165
102 166
102 167
102 168
102 169
102 181
103 104
103 107
103 108
103 109
103 110
103 112
103 113
103 114
103 115
103 116
103 117
103 118
103 119
103 120
103 121
103 122
103 123
103 124
103 125
103 126
103 127
103 128
103 129
103 130
103 131
103 132
103 133
103 134
103 135
103 136
103 137
103 138
103 139
103 140
103 141
103 142
103 143
103 146
103 147
103 148
103 149
103 150
103 151
103 152
103 153
103 154
103 155
103 156
103 157
103 158
103 159
103 160
103 161
103 162
103 163
103 164
103 165
103 166
103 167
103 168
103 169
103 179
103 180
103 181
103 182
103 193
104 106
104 107
104 108
104 109
104 110
104 112
104 114
104 115
104 116
104 117
104 118
104 119
104 120
104 121
104 122
104 123
104 124
104 125
104 126
104 127
104 128
104 129
104 130
104 131
104 132
104 133
104 134
104 135
104 136
104 137
104 138
104 139
104 140
104 141
104 142
104 143
104 146
104 147
104 148
104 149
104 150
104 151
104 152
104 153
104 154
104 155
104 156
104 157
104 158
104 159
104 160
104 161
104 162
104 163
104 164
104 165
104 166
104 167
104 168
104 169
104 183
104 186
104 193
105 106
105 107
105 111
105 144
105 145
105 170
105 171
105 184
105 190
105 191
106 107
106 144
106 145
106 185
106 186
106 191
107 108
107 109
107 110
107 112
107 113
107 114
107 115
107 116
107 117
107 118
107 119
107 120
107 121
107 122
107 123
107 124
107 125
107 126
107 127
107 128
107 129
107 130
107 131
107 132
107 133
107 134
107 135
107 136
107 137
107 138
107 139
107 140
107 141
107 142
107 143
107 144
107 145
107 183
107 185
107 186
107 191
107 193
108 110
108 112
108 113
108 114
108 115
108 116
108 117
108 118
108 119
108 120
108 121
108 122
108 123
108 124
108 125
108 176
108 180
108 187
109 110
109 112
109 113
109 114
109 115
109 116
109 117
109 118
109 119
109 120
109 121
109 122
109 123
109 124
109 125
109 177
109 180
109 188
110 112
110 113
110 114
110 115
110 116
110 117
110 118
110 119
110 120
110 121
110 122
110 123
110 124
110 125
110 126
110 127
110 128
110 129
110 130
110 131
110 132
110 133
110 134
110 135
110 136
110 137
110 138
110 139
110 140
110 141
110 142
110 143
110 173
110 181
110 189
111 144
111 145
111 191
112 113
112 114
112 115
112 116
112 117
112 118
112 119
112 120
112 121
112 122
112 123
112 124
112 125
112 126
112 127
112 128
112 129
112 130
112 131
112 132
112 133
112 134
112 135
112 136
112 137
112 138
112 139
112 140
112 141
112 142
112 143
112 146
112 147
112 148
112 149
112 150
112 151
112 152
112 153
112 154
112 155
112 156
112 157
112 158
112 159
112 160
112 161
112 162
112 163
112 164
112 165
112 166
112 167
112 168
112 169
112 180
112 181
112 182
112 192
113 114
113 115
113 116
113 117
113 118
113 119
113 120
113 121
113 122
113 123
113 124
113 125
113 126
113 127
113 128
113 129
113 130
113 131
113 132
113 133
113 134
113 135
113 136
113 137
113 138
113 139
113 140
113 141
113 142
113 143
113 146
113 147
113 148
113 149
113 150
113 151
113 152
113 153
113 154
113 155
113 156
113 157
113 158
113 159
113 160
113 161
113 162
113 163
113 164
113 165
113 166
113 167
113 168
113 169
113 193
114 179
114 193
115 179
115 193
116 179
116 193
117 179
117 193
118 180
118 192
119 180
119 192
120 180
120 192
121 180
121 192
122 181
122 192
123 181
123 192
124 181
124 192
125 181
125 192
126 175
126 180
127 175
127 180
128 175
128 181
129 175
129 181
130 175
130 193
131 175
131 193
132 175
132 180
133 175
133 180
134 175
134 181
135 175
135 181
136 175
136 193
137 175
137 193
138 174
138 180
139 174
139 180
140 174
140 181
141 174
141 181
142 174
142 193
143 174
143 193
144 172
144 191
145 172
145 191
146 180
146 182
147 180
147 182
148 181
148 182
149 181
149 182
150 180
150 182
151 180
151 182
152 181
152 182
153 181
153 182
154 179
154 181
155 179
155 181
156 179
156 181
157 179
157 181
158 179
158 180
159 179
159 180
160 179
160 180
161 179
161 180
162 178
162 193
163 178
163 193
164 178
164 193
165 178
165 193
166 192
166 193
167 192
167 193
168 192
168 193
169 192
169 193
170 171
170 172
170 184
170 186
170 191
170 194
171 172
171 184
171 186
171 191
171 194
171 195
172 184
172 190
172 194
172 195
172 226
172 233
173 174
173 175
173 176
173 177
173 178
173 179
173 180
173 181
173 182
173 183
173 186
173 189
173 192
173 193
173 196
173 197
173 198
173 199
173 200
173 201
173 202
173 203
173 204
173 205
173 206
173 207
173 223
173 231
174 175
174 176
174 177
174 178
174 179
174 181
174 182
174 183
174 186
174 192
174 196
174 197
174 198
174 199
174 200
174 201
174 202
174 203
174 204
174 205
174 206
174 207
174 208
174 209
175 176
175 177
175 178
175 179
175 181
175 182
175 183
175 186
175 192
175 196
175 197
175 198
175 199
175 200
175 201
175 202
175 203
175 204
175 205
175 206
175 207
175 208
175 209
175 210
175 211
176 178
176 179
176 180
176 181
176 182
176 183
176 186
176 187
176 192
176 193
176 196
176 197
176 198
176 199
176 200
176 201
176 202
176 203
176 204
176 205
176 206
176 207
176 208
176 209
176 210
176 211
176 222
176 229
177 178
177 179
177 180
177 181
177 182
177 183
177 186
177 188
177 192
177 193
177 196
177 197
177 198
177 199
177 200
177 201
177 202
177 203
177 204
177 205
177 206
177 207
177 208
177 209
177 210
177 211
177 222
177 230
178 179
178 180
178 181
178 182
178 192
178 196
178 197
178 198
178 199
178 200
178 201
178 202
178 203
178 204
178 205
178 206
178 207
178 208
178 209
178 210
178 211
178 212
178 213
178 214
178 215
178 220
178 234
178 235
179 180
179 181
179 182
179 183
179 186
179 192
179 193
179 196
179 197
179 198
179 199
179 200
179 201
179 202
179 203
179 204
179 205
179 206
179 207
179 208
179 209
179 210
179 211
179 212
179 213
179 214
179 215
179 216
179 217
179 221
180 181
180 182
180 183
180 186
180 192
180 193
180 196
180 197
180 198
180 199
180 200
180 201
180 202
180 203
180 204
180 205
180 206
180 207
180 208
180 209
180 210
180 211
180 212
180 213
180 214
180 215
180 216
180 217
180 218
180 222
181 182
181 183
181 186
181 192
181 193
181 196
181 197
181 198
181 199
181 200
181 201
181 202
181 203
181 204
181 205
181 206
181 207
181 208
181 209
181 210
181 211
181 212
181 213
181 214
181 215
181 216
181 217
181 218
181 219
181 223
182 183
182 186
182 192
182 193
182 196
182 197
182 198
182 199
182 200
182 201
182 202
182 203
182 204
182 205
182 206
182 207
182 208
182 209
182 210
182 211
182 212
182 213
182 214
182 215
182 216
182 217
182 218
182 219
182 221
182 222
182 223
182 224
183 185
183 186
183 192
183 193
183 196
183 197
183 198
183 199
183 200
183 201
183 202
183 203
183 204
183 205
183 206
183 207
183 208
183 209
183 210
183 211
183 212
183 213
183 214
183 215
183 216
183 217
183 218
183 219
183 225
183 228
183 235
184 190
184 194
184 195
184 226
184 232
184 233
185 186
185 194
185 195
185 227
185 228
185 233
186 190
186 192
186 193
186 225
186 227
186 228
186 233
186 235
187 229
188 230
189 231
190 194
190 195
190 232
191 194
191 195
191 233
192 193
192 196
192 197
192 198
192 199
192 200
192 201
192 202
192 203
192 204
192 205
192 206
192 207
192 208
192 209
192 210
192 211
192 212
192 213
192 214
192 215
192 216
192 217
192 218
192 219
192 222
192 223
192 224
192 234
193 196
193 197
193 198
193 199
193 200
193 201
193 202
193 203
193 204
193 205
193 206
193 207
193 208
193 209
193 210
193 211
193 212
193 213
193 214
193 215
193 216
193 217
193 218
193 219
193 235
194 226
194 233
195 226
195 233
196 222
196 224
197 222
197 224
198 223
198 224
199 223
199 224
200 222
200 224
201 222
201 224
202 223
202 224
203 223
203 224
204 221
204 223
205 221
205 223
206 221
206 223
207 221
207 223
208 221
208 222
209 221
209 222
210 221
210 222
211 221
211 222
212 220
212 235
213 220
213 235
214 220
214 235
215 220
215 235
216 234
216 235
217 234
217 235
218 234
218 235
219 234
219 235
220 221
220 222
220 223
220 224
220 234
221 224
221 225
221 234
221 235
221 236
221 237
222 223
222 225
222 234
222 235
222 236
222 237
222 238
223 225
223 234
223 235
223 236
223 237
223 238
223 239
224 225
224 234
224 235
224 236
224 237
224 238
224 239
225 227
225 228
225 236
225 237
225 238
225 239
226 232
227 228
234 236
234 237
234 238
234 239
235 236
235 237
235 238
235 239
